Maximize
  - 3.6169323216536 edge_0_1_0_0 - 2.24776 edge_0_2_0_0
   - 0.2063849876169 edge_0_3_0_0 - 2.7347621324899 edge_0_6_0_0
   - 0.86065310249632 edge_0_9_0_0 - 2.491027431087 edge_0_13_0_0
   - 3.4211628497547 edge_0_15_0_0 - 0.172787 edge_0_20_0_0
   + 0.3437120025675 edge_1_2_0_0 + 0.081431978461227 edge_1_3_0_0
   - 0.6016907665114314 edge_1_6_0_0 - 0.1781200492055703 edge_1_8_0_0
   + 0.11769257281824 edge_2_1_0_0 + 1.1159199330448 edge_2_3_0_0
   + 0.0745045671554757 edge_2_4_0_0 + 0.8954647850884097 edge_2_6_0_0
   + 0.5681154373696817 edge_2_7_0_0 + 0.2253939097978146 edge_2_8_0_0
   - 0.0766871472762049 edge_2_9_0_0 - 0.8790337362898127 edge_2_13_0_0
   - 0.5473638231653187 edge_2_15_0_0 + 1.423993977876356 edge_2_16_0_0
   + 0.00436272040998396 edge_2_17_0_0 + 0.1352014070416851 edge_2_18_0_0
   - 0.55404271520116 edge_2_19_0_0 - 0.7866398584048057 edge_2_20_0_0
   + 1.1024099338554 edge_2_22_0_0 + 1.627278619698477 edge_3_1_0_0
   + 2.1936298683822 edge_3_2_0_0 + 1.310118066252111 edge_3_4_0_0
   + 0.63181554006675 edge_3_5_0_0 + 2.6780327105686 edge_3_6_0_0
   + 2.6511435959918 edge_3_7_0_0 + 2.9668913593766 edge_3_8_0_0
   + 2.452395378492268 edge_3_9_0_0 + 0.0915541600717101 edge_3_12_0_0
   + 1.0264007007254 edge_3_13_0_0 + 1.6977411357465 edge_3_15_0_0
   + 3.7207469689884 edge_3_16_0_0 + 1.4659337230944 edge_3_17_0_0
   - 0.23398133843916 edge_3_18_0_0 + 0.1077739626967419 edge_3_19_0_0
   + 1.7813897862332 edge_3_20_0_0 - 0.1940762331971253 edge_3_21_0_0
   + 4.9721367183876 edge_3_22_0_0 - 0.738940142873083 edge_4_1_0_0
   - 0.93220752362016 edge_4_2_0_0 + 0.11160566722752 edge_4_3_0_0
   - 0.0968465202610728 edge_4_5_0_0 + 0.9817732899091109 edge_4_6_0_0
   - 0.1902323015249797 edge_4_7_0_0 + 0.4828621962313403 edge_4_8_0_0
   + 0.1663003669056697 edge_4_9_0_0 - 0.1887940378431172 edge_4_12_0_0
   - 0.0923242389547657 edge_4_13_0_0 - 0.6650369870146228 edge_4_15_0_0
   - 0.8019268229271707 edge_4_21_0_0 + 0.1129443434328243 edge_5_8_0_0
   + 0.0600764573047669 edge_6_1_0_0 + 0.373040910470164 edge_6_2_0_0
   + 0.45499036360095 edge_6_3_0_0 + 3.619952665031403 edge_6_4_0_0
   + 3.761298369881949 edge_6_5_0_0 + 1.168709943868272 edge_6_7_0_0
   + 0.6607994152415833 edge_6_8_0_0 + 0.7347000670675273 edge_6_9_0_0
   - 0.2000849450552243 edge_6_12_0_0 + 1.306214855000594 edge_6_13_0_0
   + 0.1948430452243926 edge_6_15_0_0 + 0.9974286399197726 edge_6_16_0_0
   - 0.2115086057588441 edge_6_17_0_0 - 0.756228458209393 edge_6_18_0_0
   + 0.1180332231058078 edge_6_19_0_0 - 0.1575179527446034 edge_6_20_0_0
   - 0.3892092599956662 edge_6_21_0_0 + 1.372585107299231 edge_6_22_0_0
   - 1.294052320776354 edge_8_1_0_0 - 1.4071708601944 edge_8_2_0_0
   - 0.57203111186091 edge_8_3_0_0 - 0.3998506715584537 edge_8_4_0_0
   - 0.6605185773691474 edge_8_6_0_0 + 0.7402428685481521 edge_8_9_0_0
   + 0.4355452958642739 edge_8_13_0_0 + 0.1411706851158515 edge_8_15_0_0
   + 0.2010422082114087 edge_8_17_0_0 - 0.2637337224095772 edge_8_19_0_0
   - 0.32223445044986 edge_8_22_0_0 - 0.739896848186236 edge_9_1_0_0
   - 0.0789112015281536 edge_9_2_0_0 - 0.15693672539237 edge_9_3_0_0
   - 0.5198009498513306 edge_9_4_0_0 + 0.1579707927649685 edge_9_6_0_0
   + 0.3330583039926352 edge_9_7_0_0 + 2.409388389485848 edge_9_8_0_0
   + 0.9884615156128429 edge_9_12_0_0 + 3.370995561357071 edge_9_13_0_0
   + 3.523804962616825 edge_9_15_0_0 + 2.828973190215222 edge_9_16_0_0
   + 1.639154399689139 edge_9_17_0_0 + 0.7925179688149905 edge_9_18_0_0
   + 0.8942101978455435 edge_9_19_0_0 + 2.435392416102875 edge_9_20_0_0
   + 0.5650512065853464 edge_9_21_0_0 + 2.791221959379791 edge_9_22_0_0
   + 0.2975599768824649 edge_12_13_0_0 - 0.392960269634572 edge_12_15_0_0
   - 0.9342969676222923 edge_13_1_0_0 - 0.765948770215311 edge_13_2_0_0
   - 1.4446169116522 edge_13_3_0_0 + 0.2143162878461201 edge_13_4_0_0
   + 0.4801082145867065 edge_13_5_0_0 - 0.1961432241883586 edge_13_6_0_0
   - 0.8351387033598431 edge_13_7_0_0 + 0.8028669951826749 edge_13_8_0_0
   + 0.2744447081062042 edge_13_9_0_0 + 3.847349345571222 edge_13_12_0_0
   + 0.8189899556061998 edge_13_15_0_0 + 1.033473762475921 edge_13_16_0_0
   + 0.2477105787931988 edge_13_17_0_0 - 0.3477712717847448 edge_13_18_0_0
   + 0.6692513035362949 edge_13_19_0_0 + 0.6519794597592999 edge_13_20_0_0
   - 0.3918041445333296 edge_13_21_0_0 + 1.298757375963366 edge_13_22_0_0
   - 1.046402703907493 edge_15_1_0_0 - 0.4625510055132581 edge_15_2_0_0
   - 0.1709430469094666 edge_15_3_0_0 + 0.3064875818300083 edge_15_4_0_0
   - 0.7021887724010284 edge_15_5_0_0 + 0.623254983285641 edge_15_6_0_0
   - 0.0195921801541379 edge_15_7_0_0 + 1.088727594894371 edge_15_8_0_0
   + 0.4646240751822492 edge_15_9_0_0 + 1.528453761088163 edge_15_12_0_0
   + 3.223176914652303 edge_15_13_0_0 + 2.493941818719105 edge_15_14_0_0
   + 1.731804778220418 edge_15_16_0_0 + 0.6721899811478433 edge_15_17_0_0
   + 0.9209800778972643 edge_15_18_0_0 + 1.091171381285029 edge_15_19_0_0
   + 1.149517459561088 edge_15_20_0_0 - 0.0908839549959573 edge_15_21_0_0
   + 1.592463357446822 edge_15_22_0_0 - 0.3268364647304636 edge_16_12_0_0
   - 1.181508210137519 edge_16_13_0_0 - 0.6586597395777729 edge_16_15_0_0
   + 0.0826853843797067 edge_16_17_0_0 + 0.3456001358544424 edge_16_19_0_0
   - 0.13069290925769 edge_16_20_0_0 - 0.7141656654574853 edge_17_1_0_0
   - 0.6639992022573 edge_17_2_0_0 - 0.6412841236893 edge_17_3_0_0
   - 0.4457208790096805 edge_17_6_0_0 - 0.412512925138796 edge_17_8_0_0
   - 0.3815474274142006 edge_17_9_0_0 - 0.119649384074839 edge_17_13_0_0
   + 0.2544275237988811 edge_17_15_0_0 + 0.3152943144995333 edge_17_16_0_0
   + 0.3932290277671571 edge_17_18_0_0 + 0.4268273673200026 edge_17_19_0_0
   + 0.5191929305808609 edge_17_20_0_0 - 0.0335303099302798 edge_17_21_0_0
   + 0.3857766909011761 edge_17_22_0_0 - 1.252527877794723 edge_18_2_0_0
   - 1.03301479863 edge_18_3_0_0 - 1.05407336766536 edge_18_6_0_0
   - 0.8002607232186266 edge_18_7_0_0 - 0.0777694971308958 edge_18_8_0_0
   - 0.3935685822516476 edge_18_13_0_0 + 0.516325385141676 edge_18_14_0_0
   - 0.0339103084552952 edge_18_15_0_0 + 0.6912759119658537 edge_18_16_0_0
   + 0.7384230087545753 edge_18_17_0_0 + 1.315882669027265 edge_18_19_0_0
   + 0.707654898422552 edge_18_20_0_0 - 0.3685248062596597 edge_18_21_0_0
   + 0.82105550276877 edge_18_22_0_0 - 1.376420994464801 edge_19_1_0_0
   - 2.045488527247281 edge_19_2_0_0 - 1.2338591856524 edge_19_3_0_0
   - 0.5910502019930479 edge_19_4_0_0 - 0.3743852714636086 edge_19_6_0_0
   - 0.0865562553215438 edge_19_8_0_0 - 0.1590736281631502 edge_19_9_0_0
   + 0.5899049881301369 edge_19_12_0_0 + 0.2031696635264914 edge_19_13_0_0
   + 0.3492854972159672 edge_19_15_0_0 + 0.4133964882954976 edge_19_16_0_0
   + 0.8689583773597859 edge_19_17_0_0 + 3.759023404994512 edge_19_18_0_0
   + 1.779948611639141 edge_19_20_0_0 + 0.2401250868073706 edge_19_21_0_0
   + 0.96594636247498 edge_19_22_0_0 + 0.6018722612688001 edge_20_1_0_0
   - 0.167258 edge_20_2_0_0 + 0.35109297893442 edge_20_3_0_0
   - 0.4061940179768 edge_20_4_0_0 + 0.2647498270858 edge_20_6_0_0
   - 1.268858898845514 edge_20_7_0_0 - 0.0163750620213903 edge_20_8_0_0
   + 0.68170442381776 edge_20_9_0_0 - 0.011506482647208 edge_20_12_0_0
   + 0.8774854682323 edge_20_13_0_0 - 0.0406838628846929 edge_20_14_0_0
   + 0.8112193602218999 edge_20_15_0_0 + 1.2082775329599 edge_20_16_0_0
   + 1.539695502511717 edge_20_17_0_0 + 0.8298382078987031 edge_20_18_0_0
   + 1.8883192908454 edge_20_19_0_0 + 2.9736392432505 edge_20_21_0_0
   + 3.28106744076566 edge_20_22_0_0 - 0.817590825070287 edge_21_1_0_0
   - 0.7632105708343599 edge_21_2_0_0 - 0.1426357650882 edge_21_3_0_0
   - 0.1985636471582297 edge_21_4_0_0 - 0.143215348486867 edge_21_13_0_0
   + 0.1917941225488382 edge_21_15_0_0 + 0.5410712971010436 edge_21_16_0_0
   + 0.4600219819729068 edge_21_17_0_0 + 1.256869722690876 edge_21_18_0_0
   + 0.421192643589842 edge_21_19_0_0 + 1.425817590440668 edge_21_20_0_0
   + 1.141415299747405 edge_21_22_0_0 - 0.4706652208117092 edge_22_21_0_0
Subject To
 one_parent_1: edge_0_1_0_0 + edge_2_1_0_0 + edge_3_1_0_0 + edge_4_1_0_0
   + edge_6_1_0_0 + edge_8_1_0_0 + edge_9_1_0_0 + edge_13_1_0_0
   + edge_15_1_0_0 + edge_17_1_0_0 + edge_19_1_0_0 + edge_20_1_0_0
   + edge_21_1_0_0 = 1
 consume_one_flow_unit_1: flow_0_1_0_0 - flow_1_2_0_0 - flow_1_3_0_0
   - flow_1_6_0_0 - flow_1_8_0_0 + flow_2_1_0_0 + flow_3_1_0_0
   + flow_4_1_0_0 + flow_6_1_0_0 + flow_8_1_0_0 + flow_9_1_0_0
   + flow_13_1_0_0 + flow_15_1_0_0 + flow_17_1_0_0 + flow_19_1_0_0
   + flow_20_1_0_0 + flow_21_1_0_0 = 1
 one_parent_2: edge_0_2_0_0 + edge_1_2_0_0 + edge_3_2_0_0 + edge_4_2_0_0
   + edge_6_2_0_0 + edge_8_2_0_0 + edge_9_2_0_0 + edge_13_2_0_0
   + edge_15_2_0_0 + edge_17_2_0_0 + edge_18_2_0_0 + edge_19_2_0_0
   + edge_20_2_0_0 + edge_21_2_0_0 = 1
 consume_one_flow_unit_2: flow_0_2_0_0 + flow_1_2_0_0 - flow_2_1_0_0
   - flow_2_3_0_0 - flow_2_4_0_0 - flow_2_6_0_0 - flow_2_7_0_0
   - flow_2_8_0_0 - flow_2_9_0_0 - flow_2_13_0_0 - flow_2_15_0_0
   - flow_2_16_0_0 - flow_2_17_0_0 - flow_2_18_0_0 - flow_2_19_0_0
   - flow_2_20_0_0 - flow_2_22_0_0 + flow_3_2_0_0 + flow_4_2_0_0
   + flow_6_2_0_0 + flow_8_2_0_0 + flow_9_2_0_0 + flow_13_2_0_0
   + flow_15_2_0_0 + flow_17_2_0_0 + flow_18_2_0_0 + flow_19_2_0_0
   + flow_20_2_0_0 + flow_21_2_0_0 = 1
 one_parent_3: edge_0_3_0_0 + edge_1_3_0_0 + edge_2_3_0_0 + edge_4_3_0_0
   + edge_6_3_0_0 + edge_8_3_0_0 + edge_9_3_0_0 + edge_13_3_0_0
   + edge_15_3_0_0 + edge_17_3_0_0 + edge_18_3_0_0 + edge_19_3_0_0
   + edge_20_3_0_0 + edge_21_3_0_0 = 1
 consume_one_flow_unit_3: flow_0_3_0_0 + flow_1_3_0_0 + flow_2_3_0_0
   - flow_3_1_0_0 - flow_3_2_0_0 - flow_3_4_0_0 - flow_3_5_0_0
   - flow_3_6_0_0 - flow_3_7_0_0 - flow_3_8_0_0 - flow_3_9_0_0
   - flow_3_12_0_0 - flow_3_13_0_0 - flow_3_15_0_0 - flow_3_16_0_0
   - flow_3_17_0_0 - flow_3_18_0_0 - flow_3_19_0_0 - flow_3_20_0_0
   - flow_3_21_0_0 - flow_3_22_0_0 + flow_4_3_0_0 + flow_6_3_0_0
   + flow_8_3_0_0 + flow_9_3_0_0 + flow_13_3_0_0 + flow_15_3_0_0
   + flow_17_3_0_0 + flow_18_3_0_0 + flow_19_3_0_0 + flow_20_3_0_0
   + flow_21_3_0_0 = 1
 one_parent_4: edge_2_4_0_0 + edge_3_4_0_0 + edge_6_4_0_0 + edge_8_4_0_0
   + edge_9_4_0_0 + edge_13_4_0_0 + edge_15_4_0_0 + edge_19_4_0_0
   + edge_20_4_0_0 + edge_21_4_0_0 = 1
 consume_one_flow_unit_4: flow_2_4_0_0 + flow_3_4_0_0 - flow_4_1_0_0
   - flow_4_2_0_0 - flow_4_3_0_0 - flow_4_5_0_0 - flow_4_6_0_0
   - flow_4_7_0_0 - flow_4_8_0_0 - flow_4_9_0_0 - flow_4_12_0_0
   - flow_4_13_0_0 - flow_4_15_0_0 - flow_4_21_0_0 + flow_6_4_0_0
   + flow_8_4_0_0 + flow_9_4_0_0 + flow_13_4_0_0 + flow_15_4_0_0
   + flow_19_4_0_0 + flow_20_4_0_0 + flow_21_4_0_0 = 1
 one_parent_5: edge_3_5_0_0 + edge_4_5_0_0 + edge_6_5_0_0 + edge_13_5_0_0
   + edge_15_5_0_0 = 1
 consume_one_flow_unit_5: flow_3_5_0_0 + flow_4_5_0_0 - flow_5_8_0_0
   + flow_6_5_0_0 + flow_13_5_0_0 + flow_15_5_0_0 = 1
 one_parent_6: edge_0_6_0_0 + edge_1_6_0_0 + edge_2_6_0_0 + edge_3_6_0_0
   + edge_4_6_0_0 + edge_8_6_0_0 + edge_9_6_0_0 + edge_13_6_0_0
   + edge_15_6_0_0 + edge_17_6_0_0 + edge_18_6_0_0 + edge_19_6_0_0
   + edge_20_6_0_0 = 1
 consume_one_flow_unit_6: flow_0_6_0_0 + flow_1_6_0_0 + flow_2_6_0_0
   + flow_3_6_0_0 + flow_4_6_0_0 - flow_6_1_0_0 - flow_6_2_0_0
   - flow_6_3_0_0 - flow_6_4_0_0 - flow_6_5_0_0 - flow_6_7_0_0
   - flow_6_8_0_0 - flow_6_9_0_0 - flow_6_12_0_0 - flow_6_13_0_0
   - flow_6_15_0_0 - flow_6_16_0_0 - flow_6_17_0_0 - flow_6_18_0_0
   - flow_6_19_0_0 - flow_6_20_0_0 - flow_6_21_0_0 - flow_6_22_0_0
   + flow_8_6_0_0 + flow_9_6_0_0 + flow_13_6_0_0 + flow_15_6_0_0
   + flow_17_6_0_0 + flow_18_6_0_0 + flow_19_6_0_0 + flow_20_6_0_0 = 1
 one_parent_7: edge_2_7_0_0 + edge_3_7_0_0 + edge_4_7_0_0 + edge_6_7_0_0
   + edge_9_7_0_0 + edge_13_7_0_0 + edge_15_7_0_0 + edge_18_7_0_0
   + edge_20_7_0_0 = 1
 consume_one_flow_unit_7: flow_2_7_0_0 + flow_3_7_0_0 + flow_4_7_0_0
   + flow_6_7_0_0 + flow_9_7_0_0 + flow_13_7_0_0 + flow_15_7_0_0
   + flow_18_7_0_0 + flow_20_7_0_0 = 1
 one_parent_8: edge_1_8_0_0 + edge_2_8_0_0 + edge_3_8_0_0 + edge_4_8_0_0
   + edge_5_8_0_0 + edge_6_8_0_0 + edge_9_8_0_0 + edge_13_8_0_0
   + edge_15_8_0_0 + edge_17_8_0_0 + edge_18_8_0_0 + edge_19_8_0_0
   + edge_20_8_0_0 = 1
 consume_one_flow_unit_8: flow_1_8_0_0 + flow_2_8_0_0 + flow_3_8_0_0
   + flow_4_8_0_0 + flow_5_8_0_0 + flow_6_8_0_0 - flow_8_1_0_0
   - flow_8_2_0_0 - flow_8_3_0_0 - flow_8_4_0_0 - flow_8_6_0_0
   - flow_8_9_0_0 - flow_8_13_0_0 - flow_8_15_0_0 - flow_8_17_0_0
   - flow_8_19_0_0 - flow_8_22_0_0 + flow_9_8_0_0 + flow_13_8_0_0
   + flow_15_8_0_0 + flow_17_8_0_0 + flow_18_8_0_0 + flow_19_8_0_0
   + flow_20_8_0_0 = 1
 one_parent_9: edge_0_9_0_0 + edge_2_9_0_0 + edge_3_9_0_0 + edge_4_9_0_0
   + edge_6_9_0_0 + edge_8_9_0_0 + edge_13_9_0_0 + edge_15_9_0_0
   + edge_17_9_0_0 + edge_19_9_0_0 + edge_20_9_0_0 = 1
 consume_one_flow_unit_9: flow_0_9_0_0 + flow_2_9_0_0 + flow_3_9_0_0
   + flow_4_9_0_0 + flow_6_9_0_0 + flow_8_9_0_0 - flow_9_1_0_0
   - flow_9_2_0_0 - flow_9_3_0_0 - flow_9_4_0_0 - flow_9_6_0_0
   - flow_9_7_0_0 - flow_9_8_0_0 - flow_9_12_0_0 - flow_9_13_0_0
   - flow_9_15_0_0 - flow_9_16_0_0 - flow_9_17_0_0 - flow_9_18_0_0
   - flow_9_19_0_0 - flow_9_20_0_0 - flow_9_21_0_0 - flow_9_22_0_0
   + flow_13_9_0_0 + flow_15_9_0_0 + flow_17_9_0_0 + flow_19_9_0_0
   + flow_20_9_0_0 = 1
 one_parent_10: = 1
 consume_one_flow_unit_10: = 1
 one_parent_11: = 1
 consume_one_flow_unit_11: = 1
 one_parent_12: edge_3_12_0_0 + edge_4_12_0_0 + edge_6_12_0_0
   + edge_9_12_0_0 + edge_13_12_0_0 + edge_15_12_0_0 + edge_16_12_0_0
   + edge_19_12_0_0 + edge_20_12_0_0 = 1
 consume_one_flow_unit_12: flow_3_12_0_0 + flow_4_12_0_0 + flow_6_12_0_0
   + flow_9_12_0_0 - flow_12_13_0_0 - flow_12_15_0_0 + flow_13_12_0_0
   + flow_15_12_0_0 + flow_16_12_0_0 + flow_19_12_0_0 + flow_20_12_0_0 = 1
 one_parent_13: edge_0_13_0_0 + edge_2_13_0_0 + edge_3_13_0_0
   + edge_4_13_0_0 + edge_6_13_0_0 + edge_8_13_0_0 + edge_9_13_0_0
   + edge_12_13_0_0 + edge_15_13_0_0 + edge_16_13_0_0 + edge_17_13_0_0
   + edge_18_13_0_0 + edge_19_13_0_0 + edge_20_13_0_0 + edge_21_13_0_0 = 1
 consume_one_flow_unit_13: flow_0_13_0_0 + flow_2_13_0_0 + flow_3_13_0_0
   + flow_4_13_0_0 + flow_6_13_0_0 + flow_8_13_0_0 + flow_9_13_0_0
   + flow_12_13_0_0 - flow_13_1_0_0 - flow_13_2_0_0 - flow_13_3_0_0
   - flow_13_4_0_0 - flow_13_5_0_0 - flow_13_6_0_0 - flow_13_7_0_0
   - flow_13_8_0_0 - flow_13_9_0_0 - flow_13_12_0_0 - flow_13_15_0_0
   - flow_13_16_0_0 - flow_13_17_0_0 - flow_13_18_0_0 - flow_13_19_0_0
   - flow_13_20_0_0 - flow_13_21_0_0 - flow_13_22_0_0 + flow_15_13_0_0
   + flow_16_13_0_0 + flow_17_13_0_0 + flow_18_13_0_0 + flow_19_13_0_0
   + flow_20_13_0_0 + flow_21_13_0_0 = 1
 one_parent_14: edge_15_14_0_0 + edge_18_14_0_0 + edge_20_14_0_0 = 1
 consume_one_flow_unit_14: flow_15_14_0_0 + flow_18_14_0_0 + flow_20_14_0_0
   = 1
 one_parent_15: edge_0_15_0_0 + edge_2_15_0_0 + edge_3_15_0_0
   + edge_4_15_0_0 + edge_6_15_0_0 + edge_8_15_0_0 + edge_9_15_0_0
   + edge_12_15_0_0 + edge_13_15_0_0 + edge_16_15_0_0 + edge_17_15_0_0
   + edge_18_15_0_0 + edge_19_15_0_0 + edge_20_15_0_0 + edge_21_15_0_0 = 1
 consume_one_flow_unit_15: flow_0_15_0_0 + flow_2_15_0_0 + flow_3_15_0_0
   + flow_4_15_0_0 + flow_6_15_0_0 + flow_8_15_0_0 + flow_9_15_0_0
   + flow_12_15_0_0 + flow_13_15_0_0 - flow_15_1_0_0 - flow_15_2_0_0
   - flow_15_3_0_0 - flow_15_4_0_0 - flow_15_5_0_0 - flow_15_6_0_0
   - flow_15_7_0_0 - flow_15_8_0_0 - flow_15_9_0_0 - flow_15_12_0_0
   - flow_15_13_0_0 - flow_15_14_0_0 - flow_15_16_0_0 - flow_15_17_0_0
   - flow_15_18_0_0 - flow_15_19_0_0 - flow_15_20_0_0 - flow_15_21_0_0
   - flow_15_22_0_0 + flow_16_15_0_0 + flow_17_15_0_0 + flow_18_15_0_0
   + flow_19_15_0_0 + flow_20_15_0_0 + flow_21_15_0_0 = 1
 one_parent_16: edge_2_16_0_0 + edge_3_16_0_0 + edge_6_16_0_0
   + edge_9_16_0_0 + edge_13_16_0_0 + edge_15_16_0_0 + edge_17_16_0_0
   + edge_18_16_0_0 + edge_19_16_0_0 + edge_20_16_0_0 + edge_21_16_0_0 = 1
 consume_one_flow_unit_16: flow_2_16_0_0 + flow_3_16_0_0 + flow_6_16_0_0
   + flow_9_16_0_0 + flow_13_16_0_0 + flow_15_16_0_0 - flow_16_12_0_0
   - flow_16_13_0_0 - flow_16_15_0_0 - flow_16_17_0_0 - flow_16_19_0_0
   - flow_16_20_0_0 + flow_17_16_0_0 + flow_18_16_0_0 + flow_19_16_0_0
   + flow_20_16_0_0 + flow_21_16_0_0 = 1
 one_parent_17: edge_2_17_0_0 + edge_3_17_0_0 + edge_6_17_0_0
   + edge_8_17_0_0 + edge_9_17_0_0 + edge_13_17_0_0 + edge_15_17_0_0
   + edge_16_17_0_0 + edge_18_17_0_0 + edge_19_17_0_0 + edge_20_17_0_0
   + edge_21_17_0_0 = 1
 consume_one_flow_unit_17: flow_2_17_0_0 + flow_3_17_0_0 + flow_6_17_0_0
   + flow_8_17_0_0 + flow_9_17_0_0 + flow_13_17_0_0 + flow_15_17_0_0
   + flow_16_17_0_0 - flow_17_1_0_0 - flow_17_2_0_0 - flow_17_3_0_0
   - flow_17_6_0_0 - flow_17_8_0_0 - flow_17_9_0_0 - flow_17_13_0_0
   - flow_17_15_0_0 - flow_17_16_0_0 - flow_17_18_0_0 - flow_17_19_0_0
   - flow_17_20_0_0 - flow_17_21_0_0 - flow_17_22_0_0 + flow_18_17_0_0
   + flow_19_17_0_0 + flow_20_17_0_0 + flow_21_17_0_0 = 1
 one_parent_18: edge_2_18_0_0 + edge_3_18_0_0 + edge_6_18_0_0
   + edge_9_18_0_0 + edge_13_18_0_0 + edge_15_18_0_0 + edge_17_18_0_0
   + edge_19_18_0_0 + edge_20_18_0_0 + edge_21_18_0_0 = 1
 consume_one_flow_unit_18: flow_2_18_0_0 + flow_3_18_0_0 + flow_6_18_0_0
   + flow_9_18_0_0 + flow_13_18_0_0 + flow_15_18_0_0 + flow_17_18_0_0
   - flow_18_2_0_0 - flow_18_3_0_0 - flow_18_6_0_0 - flow_18_7_0_0
   - flow_18_8_0_0 - flow_18_13_0_0 - flow_18_14_0_0 - flow_18_15_0_0
   - flow_18_16_0_0 - flow_18_17_0_0 - flow_18_19_0_0 - flow_18_20_0_0
   - flow_18_21_0_0 - flow_18_22_0_0 + flow_19_18_0_0 + flow_20_18_0_0
   + flow_21_18_0_0 = 1
 one_parent_19: edge_2_19_0_0 + edge_3_19_0_0 + edge_6_19_0_0
   + edge_8_19_0_0 + edge_9_19_0_0 + edge_13_19_0_0 + edge_15_19_0_0
   + edge_16_19_0_0 + edge_17_19_0_0 + edge_18_19_0_0 + edge_20_19_0_0
   + edge_21_19_0_0 = 1
 consume_one_flow_unit_19: flow_2_19_0_0 + flow_3_19_0_0 + flow_6_19_0_0
   + flow_8_19_0_0 + flow_9_19_0_0 + flow_13_19_0_0 + flow_15_19_0_0
   + flow_16_19_0_0 + flow_17_19_0_0 + flow_18_19_0_0 - flow_19_1_0_0
   - flow_19_2_0_0 - flow_19_3_0_0 - flow_19_4_0_0 - flow_19_6_0_0
   - flow_19_8_0_0 - flow_19_9_0_0 - flow_19_12_0_0 - flow_19_13_0_0
   - flow_19_15_0_0 - flow_19_16_0_0 - flow_19_17_0_0 - flow_19_18_0_0
   - flow_19_20_0_0 - flow_19_21_0_0 - flow_19_22_0_0 + flow_20_19_0_0
   + flow_21_19_0_0 = 1
 one_parent_20: edge_0_20_0_0 + edge_2_20_0_0 + edge_3_20_0_0
   + edge_6_20_0_0 + edge_9_20_0_0 + edge_13_20_0_0 + edge_15_20_0_0
   + edge_16_20_0_0 + edge_17_20_0_0 + edge_18_20_0_0 + edge_19_20_0_0
   + edge_21_20_0_0 = 1
 consume_one_flow_unit_20: flow_0_20_0_0 + flow_2_20_0_0 + flow_3_20_0_0
   + flow_6_20_0_0 + flow_9_20_0_0 + flow_13_20_0_0 + flow_15_20_0_0
   + flow_16_20_0_0 + flow_17_20_0_0 + flow_18_20_0_0 + flow_19_20_0_0
   - flow_20_1_0_0 - flow_20_2_0_0 - flow_20_3_0_0 - flow_20_4_0_0
   - flow_20_6_0_0 - flow_20_7_0_0 - flow_20_8_0_0 - flow_20_9_0_0
   - flow_20_12_0_0 - flow_20_13_0_0 - flow_20_14_0_0 - flow_20_15_0_0
   - flow_20_16_0_0 - flow_20_17_0_0 - flow_20_18_0_0 - flow_20_19_0_0
   - flow_20_21_0_0 - flow_20_22_0_0 + flow_21_20_0_0 = 1
 one_parent_21: edge_3_21_0_0 + edge_4_21_0_0 + edge_6_21_0_0
   + edge_9_21_0_0 + edge_13_21_0_0 + edge_15_21_0_0 + edge_17_21_0_0
   + edge_18_21_0_0 + edge_19_21_0_0 + edge_20_21_0_0 + edge_22_21_0_0 = 1
 consume_one_flow_unit_21: flow_3_21_0_0 + flow_4_21_0_0 + flow_6_21_0_0
   + flow_9_21_0_0 + flow_13_21_0_0 + flow_15_21_0_0 + flow_17_21_0_0
   + flow_18_21_0_0 + flow_19_21_0_0 + flow_20_21_0_0 - flow_21_1_0_0
   - flow_21_2_0_0 - flow_21_3_0_0 - flow_21_4_0_0 - flow_21_13_0_0
   - flow_21_15_0_0 - flow_21_16_0_0 - flow_21_17_0_0 - flow_21_18_0_0
   - flow_21_19_0_0 - flow_21_20_0_0 - flow_21_22_0_0 + flow_22_21_0_0 = 1
 one_parent_22: edge_2_22_0_0 + edge_3_22_0_0 + edge_6_22_0_0
   + edge_8_22_0_0 + edge_9_22_0_0 + edge_13_22_0_0 + edge_15_22_0_0
   + edge_17_22_0_0 + edge_18_22_0_0 + edge_19_22_0_0 + edge_20_22_0_0
   + edge_21_22_0_0 = 1
 consume_one_flow_unit_22: flow_2_22_0_0 + flow_3_22_0_0 + flow_6_22_0_0
   + flow_8_22_0_0 + flow_9_22_0_0 + flow_13_22_0_0 + flow_15_22_0_0
   + flow_17_22_0_0 + flow_18_22_0_0 + flow_19_22_0_0 + flow_20_22_0_0
   + flow_21_22_0_0 - flow_22_21_0_0 = 1
 root_flow: flow_0_1_0_0 + flow_0_2_0_0 + flow_0_3_0_0 + flow_0_6_0_0
   + flow_0_9_0_0 + flow_0_13_0_0 + flow_0_15_0_0 + flow_0_20_0_0 = 22
 inactive_no_flow_0_1_0_0: flow_0_1_0_0 - 1000 edge_0_1_0_0 <= 0
 inactive_no_flow_0_2_0_0: flow_0_2_0_0 - 1000 edge_0_2_0_0 <= 0
 inactive_no_flow_0_3_0_0: flow_0_3_0_0 - 1000 edge_0_3_0_0 <= 0
 inactive_no_flow_0_6_0_0: flow_0_6_0_0 - 1000 edge_0_6_0_0 <= 0
 inactive_no_flow_0_9_0_0: flow_0_9_0_0 - 1000 edge_0_9_0_0 <= 0
 inactive_no_flow_0_13_0_0: flow_0_13_0_0 - 1000 edge_0_13_0_0 <= 0
 inactive_no_flow_0_15_0_0: flow_0_15_0_0 - 1000 edge_0_15_0_0 <= 0
 inactive_no_flow_0_20_0_0: flow_0_20_0_0 - 1000 edge_0_20_0_0 <= 0
 inactive_no_flow_1_2_0_0: flow_1_2_0_0 - 1000 edge_1_2_0_0 <= 0
 inactive_no_flow_1_3_0_0: flow_1_3_0_0 - 1000 edge_1_3_0_0 <= 0
 inactive_no_flow_1_6_0_0: flow_1_6_0_0 - 1000 edge_1_6_0_0 <= 0
 inactive_no_flow_1_8_0_0: flow_1_8_0_0 - 1000 edge_1_8_0_0 <= 0
 inactive_no_flow_2_1_0_0: flow_2_1_0_0 - 1000 edge_2_1_0_0 <= 0
 inactive_no_flow_2_3_0_0: flow_2_3_0_0 - 1000 edge_2_3_0_0 <= 0
 inactive_no_flow_2_4_0_0: flow_2_4_0_0 - 1000 edge_2_4_0_0 <= 0
 inactive_no_flow_2_6_0_0: flow_2_6_0_0 - 1000 edge_2_6_0_0 <= 0
 inactive_no_flow_2_7_0_0: flow_2_7_0_0 - 1000 edge_2_7_0_0 <= 0
 inactive_no_flow_2_8_0_0: flow_2_8_0_0 - 1000 edge_2_8_0_0 <= 0
 inactive_no_flow_2_9_0_0: flow_2_9_0_0 - 1000 edge_2_9_0_0 <= 0
 inactive_no_flow_2_13_0_0: flow_2_13_0_0 - 1000 edge_2_13_0_0 <= 0
 inactive_no_flow_2_15_0_0: flow_2_15_0_0 - 1000 edge_2_15_0_0 <= 0
 inactive_no_flow_2_16_0_0: flow_2_16_0_0 - 1000 edge_2_16_0_0 <= 0
 inactive_no_flow_2_17_0_0: flow_2_17_0_0 - 1000 edge_2_17_0_0 <= 0
 inactive_no_flow_2_18_0_0: flow_2_18_0_0 - 1000 edge_2_18_0_0 <= 0
 inactive_no_flow_2_19_0_0: flow_2_19_0_0 - 1000 edge_2_19_0_0 <= 0
 inactive_no_flow_2_20_0_0: flow_2_20_0_0 - 1000 edge_2_20_0_0 <= 0
 inactive_no_flow_2_22_0_0: flow_2_22_0_0 - 1000 edge_2_22_0_0 <= 0
 inactive_no_flow_3_1_0_0: flow_3_1_0_0 - 1000 edge_3_1_0_0 <= 0
 inactive_no_flow_3_2_0_0: flow_3_2_0_0 - 1000 edge_3_2_0_0 <= 0
 inactive_no_flow_3_4_0_0: flow_3_4_0_0 - 1000 edge_3_4_0_0 <= 0
 inactive_no_flow_3_5_0_0: flow_3_5_0_0 - 1000 edge_3_5_0_0 <= 0
 inactive_no_flow_3_6_0_0: flow_3_6_0_0 - 1000 edge_3_6_0_0 <= 0
 inactive_no_flow_3_7_0_0: flow_3_7_0_0 - 1000 edge_3_7_0_0 <= 0
 inactive_no_flow_3_8_0_0: flow_3_8_0_0 - 1000 edge_3_8_0_0 <= 0
 inactive_no_flow_3_9_0_0: flow_3_9_0_0 - 1000 edge_3_9_0_0 <= 0
 inactive_no_flow_3_12_0_0: flow_3_12_0_0 - 1000 edge_3_12_0_0 <= 0
 inactive_no_flow_3_13_0_0: flow_3_13_0_0 - 1000 edge_3_13_0_0 <= 0
 inactive_no_flow_3_15_0_0: flow_3_15_0_0 - 1000 edge_3_15_0_0 <= 0
 inactive_no_flow_3_16_0_0: flow_3_16_0_0 - 1000 edge_3_16_0_0 <= 0
 inactive_no_flow_3_17_0_0: flow_3_17_0_0 - 1000 edge_3_17_0_0 <= 0
 inactive_no_flow_3_18_0_0: flow_3_18_0_0 - 1000 edge_3_18_0_0 <= 0
 inactive_no_flow_3_19_0_0: flow_3_19_0_0 - 1000 edge_3_19_0_0 <= 0
 inactive_no_flow_3_20_0_0: flow_3_20_0_0 - 1000 edge_3_20_0_0 <= 0
 inactive_no_flow_3_21_0_0: flow_3_21_0_0 - 1000 edge_3_21_0_0 <= 0
 inactive_no_flow_3_22_0_0: flow_3_22_0_0 - 1000 edge_3_22_0_0 <= 0
 inactive_no_flow_4_1_0_0: flow_4_1_0_0 - 1000 edge_4_1_0_0 <= 0
 inactive_no_flow_4_2_0_0: flow_4_2_0_0 - 1000 edge_4_2_0_0 <= 0
 inactive_no_flow_4_3_0_0: flow_4_3_0_0 - 1000 edge_4_3_0_0 <= 0
 inactive_no_flow_4_5_0_0: flow_4_5_0_0 - 1000 edge_4_5_0_0 <= 0
 inactive_no_flow_4_6_0_0: flow_4_6_0_0 - 1000 edge_4_6_0_0 <= 0
 inactive_no_flow_4_7_0_0: flow_4_7_0_0 - 1000 edge_4_7_0_0 <= 0
 inactive_no_flow_4_8_0_0: flow_4_8_0_0 - 1000 edge_4_8_0_0 <= 0
 inactive_no_flow_4_9_0_0: flow_4_9_0_0 - 1000 edge_4_9_0_0 <= 0
 inactive_no_flow_4_12_0_0: flow_4_12_0_0 - 1000 edge_4_12_0_0 <= 0
 inactive_no_flow_4_13_0_0: flow_4_13_0_0 - 1000 edge_4_13_0_0 <= 0
 inactive_no_flow_4_15_0_0: flow_4_15_0_0 - 1000 edge_4_15_0_0 <= 0
 inactive_no_flow_4_21_0_0: flow_4_21_0_0 - 1000 edge_4_21_0_0 <= 0
 inactive_no_flow_5_8_0_0: flow_5_8_0_0 - 1000 edge_5_8_0_0 <= 0
 inactive_no_flow_6_1_0_0: flow_6_1_0_0 - 1000 edge_6_1_0_0 <= 0
 inactive_no_flow_6_2_0_0: flow_6_2_0_0 - 1000 edge_6_2_0_0 <= 0
 inactive_no_flow_6_3_0_0: flow_6_3_0_0 - 1000 edge_6_3_0_0 <= 0
 inactive_no_flow_6_4_0_0: flow_6_4_0_0 - 1000 edge_6_4_0_0 <= 0
 inactive_no_flow_6_5_0_0: flow_6_5_0_0 - 1000 edge_6_5_0_0 <= 0
 inactive_no_flow_6_7_0_0: flow_6_7_0_0 - 1000 edge_6_7_0_0 <= 0
 inactive_no_flow_6_8_0_0: flow_6_8_0_0 - 1000 edge_6_8_0_0 <= 0
 inactive_no_flow_6_9_0_0: flow_6_9_0_0 - 1000 edge_6_9_0_0 <= 0
 inactive_no_flow_6_12_0_0: flow_6_12_0_0 - 1000 edge_6_12_0_0 <= 0
 inactive_no_flow_6_13_0_0: flow_6_13_0_0 - 1000 edge_6_13_0_0 <= 0
 inactive_no_flow_6_15_0_0: flow_6_15_0_0 - 1000 edge_6_15_0_0 <= 0
 inactive_no_flow_6_16_0_0: flow_6_16_0_0 - 1000 edge_6_16_0_0 <= 0
 inactive_no_flow_6_17_0_0: flow_6_17_0_0 - 1000 edge_6_17_0_0 <= 0
 inactive_no_flow_6_18_0_0: flow_6_18_0_0 - 1000 edge_6_18_0_0 <= 0
 inactive_no_flow_6_19_0_0: flow_6_19_0_0 - 1000 edge_6_19_0_0 <= 0
 inactive_no_flow_6_20_0_0: flow_6_20_0_0 - 1000 edge_6_20_0_0 <= 0
 inactive_no_flow_6_21_0_0: flow_6_21_0_0 - 1000 edge_6_21_0_0 <= 0
 inactive_no_flow_6_22_0_0: flow_6_22_0_0 - 1000 edge_6_22_0_0 <= 0
 inactive_no_flow_8_1_0_0: flow_8_1_0_0 - 1000 edge_8_1_0_0 <= 0
 inactive_no_flow_8_2_0_0: flow_8_2_0_0 - 1000 edge_8_2_0_0 <= 0
 inactive_no_flow_8_3_0_0: flow_8_3_0_0 - 1000 edge_8_3_0_0 <= 0
 inactive_no_flow_8_4_0_0: flow_8_4_0_0 - 1000 edge_8_4_0_0 <= 0
 inactive_no_flow_8_6_0_0: flow_8_6_0_0 - 1000 edge_8_6_0_0 <= 0
 inactive_no_flow_8_9_0_0: flow_8_9_0_0 - 1000 edge_8_9_0_0 <= 0
 inactive_no_flow_8_13_0_0: flow_8_13_0_0 - 1000 edge_8_13_0_0 <= 0
 inactive_no_flow_8_15_0_0: flow_8_15_0_0 - 1000 edge_8_15_0_0 <= 0
 inactive_no_flow_8_17_0_0: flow_8_17_0_0 - 1000 edge_8_17_0_0 <= 0
 inactive_no_flow_8_19_0_0: flow_8_19_0_0 - 1000 edge_8_19_0_0 <= 0
 inactive_no_flow_8_22_0_0: flow_8_22_0_0 - 1000 edge_8_22_0_0 <= 0
 inactive_no_flow_9_1_0_0: flow_9_1_0_0 - 1000 edge_9_1_0_0 <= 0
 inactive_no_flow_9_2_0_0: flow_9_2_0_0 - 1000 edge_9_2_0_0 <= 0
 inactive_no_flow_9_3_0_0: flow_9_3_0_0 - 1000 edge_9_3_0_0 <= 0
 inactive_no_flow_9_4_0_0: flow_9_4_0_0 - 1000 edge_9_4_0_0 <= 0
 inactive_no_flow_9_6_0_0: flow_9_6_0_0 - 1000 edge_9_6_0_0 <= 0
 inactive_no_flow_9_7_0_0: flow_9_7_0_0 - 1000 edge_9_7_0_0 <= 0
 inactive_no_flow_9_8_0_0: flow_9_8_0_0 - 1000 edge_9_8_0_0 <= 0
 inactive_no_flow_9_12_0_0: flow_9_12_0_0 - 1000 edge_9_12_0_0 <= 0
 inactive_no_flow_9_13_0_0: flow_9_13_0_0 - 1000 edge_9_13_0_0 <= 0
 inactive_no_flow_9_15_0_0: flow_9_15_0_0 - 1000 edge_9_15_0_0 <= 0
 inactive_no_flow_9_16_0_0: flow_9_16_0_0 - 1000 edge_9_16_0_0 <= 0
 inactive_no_flow_9_17_0_0: flow_9_17_0_0 - 1000 edge_9_17_0_0 <= 0
 inactive_no_flow_9_18_0_0: flow_9_18_0_0 - 1000 edge_9_18_0_0 <= 0
 inactive_no_flow_9_19_0_0: flow_9_19_0_0 - 1000 edge_9_19_0_0 <= 0
 inactive_no_flow_9_20_0_0: flow_9_20_0_0 - 1000 edge_9_20_0_0 <= 0
 inactive_no_flow_9_21_0_0: flow_9_21_0_0 - 1000 edge_9_21_0_0 <= 0
 inactive_no_flow_9_22_0_0: flow_9_22_0_0 - 1000 edge_9_22_0_0 <= 0
 inactive_no_flow_12_13_0_0: flow_12_13_0_0 - 1000 edge_12_13_0_0 <= 0
 inactive_no_flow_12_15_0_0: flow_12_15_0_0 - 1000 edge_12_15_0_0 <= 0
 inactive_no_flow_13_1_0_0: flow_13_1_0_0 - 1000 edge_13_1_0_0 <= 0
 inactive_no_flow_13_2_0_0: flow_13_2_0_0 - 1000 edge_13_2_0_0 <= 0
 inactive_no_flow_13_3_0_0: flow_13_3_0_0 - 1000 edge_13_3_0_0 <= 0
 inactive_no_flow_13_4_0_0: flow_13_4_0_0 - 1000 edge_13_4_0_0 <= 0
 inactive_no_flow_13_5_0_0: flow_13_5_0_0 - 1000 edge_13_5_0_0 <= 0
 inactive_no_flow_13_6_0_0: flow_13_6_0_0 - 1000 edge_13_6_0_0 <= 0
 inactive_no_flow_13_7_0_0: flow_13_7_0_0 - 1000 edge_13_7_0_0 <= 0
 inactive_no_flow_13_8_0_0: flow_13_8_0_0 - 1000 edge_13_8_0_0 <= 0
 inactive_no_flow_13_9_0_0: flow_13_9_0_0 - 1000 edge_13_9_0_0 <= 0
 inactive_no_flow_13_12_0_0: flow_13_12_0_0 - 1000 edge_13_12_0_0 <= 0
 inactive_no_flow_13_15_0_0: flow_13_15_0_0 - 1000 edge_13_15_0_0 <= 0
 inactive_no_flow_13_16_0_0: flow_13_16_0_0 - 1000 edge_13_16_0_0 <= 0
 inactive_no_flow_13_17_0_0: flow_13_17_0_0 - 1000 edge_13_17_0_0 <= 0
 inactive_no_flow_13_18_0_0: flow_13_18_0_0 - 1000 edge_13_18_0_0 <= 0
 inactive_no_flow_13_19_0_0: flow_13_19_0_0 - 1000 edge_13_19_0_0 <= 0
 inactive_no_flow_13_20_0_0: flow_13_20_0_0 - 1000 edge_13_20_0_0 <= 0
 inactive_no_flow_13_21_0_0: flow_13_21_0_0 - 1000 edge_13_21_0_0 <= 0
 inactive_no_flow_13_22_0_0: flow_13_22_0_0 - 1000 edge_13_22_0_0 <= 0
 inactive_no_flow_15_1_0_0: flow_15_1_0_0 - 1000 edge_15_1_0_0 <= 0
 inactive_no_flow_15_2_0_0: flow_15_2_0_0 - 1000 edge_15_2_0_0 <= 0
 inactive_no_flow_15_3_0_0: flow_15_3_0_0 - 1000 edge_15_3_0_0 <= 0
 inactive_no_flow_15_4_0_0: flow_15_4_0_0 - 1000 edge_15_4_0_0 <= 0
 inactive_no_flow_15_5_0_0: flow_15_5_0_0 - 1000 edge_15_5_0_0 <= 0
 inactive_no_flow_15_6_0_0: flow_15_6_0_0 - 1000 edge_15_6_0_0 <= 0
 inactive_no_flow_15_7_0_0: flow_15_7_0_0 - 1000 edge_15_7_0_0 <= 0
 inactive_no_flow_15_8_0_0: flow_15_8_0_0 - 1000 edge_15_8_0_0 <= 0
 inactive_no_flow_15_9_0_0: flow_15_9_0_0 - 1000 edge_15_9_0_0 <= 0
 inactive_no_flow_15_12_0_0: flow_15_12_0_0 - 1000 edge_15_12_0_0 <= 0
 inactive_no_flow_15_13_0_0: flow_15_13_0_0 - 1000 edge_15_13_0_0 <= 0
 inactive_no_flow_15_14_0_0: flow_15_14_0_0 - 1000 edge_15_14_0_0 <= 0
 inactive_no_flow_15_16_0_0: flow_15_16_0_0 - 1000 edge_15_16_0_0 <= 0
 inactive_no_flow_15_17_0_0: flow_15_17_0_0 - 1000 edge_15_17_0_0 <= 0
 inactive_no_flow_15_18_0_0: flow_15_18_0_0 - 1000 edge_15_18_0_0 <= 0
 inactive_no_flow_15_19_0_0: flow_15_19_0_0 - 1000 edge_15_19_0_0 <= 0
 inactive_no_flow_15_20_0_0: flow_15_20_0_0 - 1000 edge_15_20_0_0 <= 0
 inactive_no_flow_15_21_0_0: flow_15_21_0_0 - 1000 edge_15_21_0_0 <= 0
 inactive_no_flow_15_22_0_0: flow_15_22_0_0 - 1000 edge_15_22_0_0 <= 0
 inactive_no_flow_16_12_0_0: flow_16_12_0_0 - 1000 edge_16_12_0_0 <= 0
 inactive_no_flow_16_13_0_0: flow_16_13_0_0 - 1000 edge_16_13_0_0 <= 0
 inactive_no_flow_16_15_0_0: flow_16_15_0_0 - 1000 edge_16_15_0_0 <= 0
 inactive_no_flow_16_17_0_0: flow_16_17_0_0 - 1000 edge_16_17_0_0 <= 0
 inactive_no_flow_16_19_0_0: flow_16_19_0_0 - 1000 edge_16_19_0_0 <= 0
 inactive_no_flow_16_20_0_0: flow_16_20_0_0 - 1000 edge_16_20_0_0 <= 0
 inactive_no_flow_17_1_0_0: flow_17_1_0_0 - 1000 edge_17_1_0_0 <= 0
 inactive_no_flow_17_2_0_0: flow_17_2_0_0 - 1000 edge_17_2_0_0 <= 0
 inactive_no_flow_17_3_0_0: flow_17_3_0_0 - 1000 edge_17_3_0_0 <= 0
 inactive_no_flow_17_6_0_0: flow_17_6_0_0 - 1000 edge_17_6_0_0 <= 0
 inactive_no_flow_17_8_0_0: flow_17_8_0_0 - 1000 edge_17_8_0_0 <= 0
 inactive_no_flow_17_9_0_0: flow_17_9_0_0 - 1000 edge_17_9_0_0 <= 0
 inactive_no_flow_17_13_0_0: flow_17_13_0_0 - 1000 edge_17_13_0_0 <= 0
 inactive_no_flow_17_15_0_0: flow_17_15_0_0 - 1000 edge_17_15_0_0 <= 0
 inactive_no_flow_17_16_0_0: flow_17_16_0_0 - 1000 edge_17_16_0_0 <= 0
 inactive_no_flow_17_18_0_0: flow_17_18_0_0 - 1000 edge_17_18_0_0 <= 0
 inactive_no_flow_17_19_0_0: flow_17_19_0_0 - 1000 edge_17_19_0_0 <= 0
 inactive_no_flow_17_20_0_0: flow_17_20_0_0 - 1000 edge_17_20_0_0 <= 0
 inactive_no_flow_17_21_0_0: flow_17_21_0_0 - 1000 edge_17_21_0_0 <= 0
 inactive_no_flow_17_22_0_0: flow_17_22_0_0 - 1000 edge_17_22_0_0 <= 0
 inactive_no_flow_18_2_0_0: flow_18_2_0_0 - 1000 edge_18_2_0_0 <= 0
 inactive_no_flow_18_3_0_0: flow_18_3_0_0 - 1000 edge_18_3_0_0 <= 0
 inactive_no_flow_18_6_0_0: flow_18_6_0_0 - 1000 edge_18_6_0_0 <= 0
 inactive_no_flow_18_7_0_0: flow_18_7_0_0 - 1000 edge_18_7_0_0 <= 0
 inactive_no_flow_18_8_0_0: flow_18_8_0_0 - 1000 edge_18_8_0_0 <= 0
 inactive_no_flow_18_13_0_0: flow_18_13_0_0 - 1000 edge_18_13_0_0 <= 0
 inactive_no_flow_18_14_0_0: flow_18_14_0_0 - 1000 edge_18_14_0_0 <= 0
 inactive_no_flow_18_15_0_0: flow_18_15_0_0 - 1000 edge_18_15_0_0 <= 0
 inactive_no_flow_18_16_0_0: flow_18_16_0_0 - 1000 edge_18_16_0_0 <= 0
 inactive_no_flow_18_17_0_0: flow_18_17_0_0 - 1000 edge_18_17_0_0 <= 0
 inactive_no_flow_18_19_0_0: flow_18_19_0_0 - 1000 edge_18_19_0_0 <= 0
 inactive_no_flow_18_20_0_0: flow_18_20_0_0 - 1000 edge_18_20_0_0 <= 0
 inactive_no_flow_18_21_0_0: flow_18_21_0_0 - 1000 edge_18_21_0_0 <= 0
 inactive_no_flow_18_22_0_0: flow_18_22_0_0 - 1000 edge_18_22_0_0 <= 0
 inactive_no_flow_19_1_0_0: flow_19_1_0_0 - 1000 edge_19_1_0_0 <= 0
 inactive_no_flow_19_2_0_0: flow_19_2_0_0 - 1000 edge_19_2_0_0 <= 0
 inactive_no_flow_19_3_0_0: flow_19_3_0_0 - 1000 edge_19_3_0_0 <= 0
 inactive_no_flow_19_4_0_0: flow_19_4_0_0 - 1000 edge_19_4_0_0 <= 0
 inactive_no_flow_19_6_0_0: flow_19_6_0_0 - 1000 edge_19_6_0_0 <= 0
 inactive_no_flow_19_8_0_0: flow_19_8_0_0 - 1000 edge_19_8_0_0 <= 0
 inactive_no_flow_19_9_0_0: flow_19_9_0_0 - 1000 edge_19_9_0_0 <= 0
 inactive_no_flow_19_12_0_0: flow_19_12_0_0 - 1000 edge_19_12_0_0 <= 0
 inactive_no_flow_19_13_0_0: flow_19_13_0_0 - 1000 edge_19_13_0_0 <= 0
 inactive_no_flow_19_15_0_0: flow_19_15_0_0 - 1000 edge_19_15_0_0 <= 0
 inactive_no_flow_19_16_0_0: flow_19_16_0_0 - 1000 edge_19_16_0_0 <= 0
 inactive_no_flow_19_17_0_0: flow_19_17_0_0 - 1000 edge_19_17_0_0 <= 0
 inactive_no_flow_19_18_0_0: flow_19_18_0_0 - 1000 edge_19_18_0_0 <= 0
 inactive_no_flow_19_20_0_0: flow_19_20_0_0 - 1000 edge_19_20_0_0 <= 0
 inactive_no_flow_19_21_0_0: flow_19_21_0_0 - 1000 edge_19_21_0_0 <= 0
 inactive_no_flow_19_22_0_0: flow_19_22_0_0 - 1000 edge_19_22_0_0 <= 0
 inactive_no_flow_20_1_0_0: flow_20_1_0_0 - 1000 edge_20_1_0_0 <= 0
 inactive_no_flow_20_2_0_0: flow_20_2_0_0 - 1000 edge_20_2_0_0 <= 0
 inactive_no_flow_20_3_0_0: flow_20_3_0_0 - 1000 edge_20_3_0_0 <= 0
 inactive_no_flow_20_4_0_0: flow_20_4_0_0 - 1000 edge_20_4_0_0 <= 0
 inactive_no_flow_20_6_0_0: flow_20_6_0_0 - 1000 edge_20_6_0_0 <= 0
 inactive_no_flow_20_7_0_0: flow_20_7_0_0 - 1000 edge_20_7_0_0 <= 0
 inactive_no_flow_20_8_0_0: flow_20_8_0_0 - 1000 edge_20_8_0_0 <= 0
 inactive_no_flow_20_9_0_0: flow_20_9_0_0 - 1000 edge_20_9_0_0 <= 0
 inactive_no_flow_20_12_0_0: flow_20_12_0_0 - 1000 edge_20_12_0_0 <= 0
 inactive_no_flow_20_13_0_0: flow_20_13_0_0 - 1000 edge_20_13_0_0 <= 0
 inactive_no_flow_20_14_0_0: flow_20_14_0_0 - 1000 edge_20_14_0_0 <= 0
 inactive_no_flow_20_15_0_0: flow_20_15_0_0 - 1000 edge_20_15_0_0 <= 0
 inactive_no_flow_20_16_0_0: flow_20_16_0_0 - 1000 edge_20_16_0_0 <= 0
 inactive_no_flow_20_17_0_0: flow_20_17_0_0 - 1000 edge_20_17_0_0 <= 0
 inactive_no_flow_20_18_0_0: flow_20_18_0_0 - 1000 edge_20_18_0_0 <= 0
 inactive_no_flow_20_19_0_0: flow_20_19_0_0 - 1000 edge_20_19_0_0 <= 0
 inactive_no_flow_20_21_0_0: flow_20_21_0_0 - 1000 edge_20_21_0_0 <= 0
 inactive_no_flow_20_22_0_0: flow_20_22_0_0 - 1000 edge_20_22_0_0 <= 0
 inactive_no_flow_21_1_0_0: flow_21_1_0_0 - 1000 edge_21_1_0_0 <= 0
 inactive_no_flow_21_2_0_0: flow_21_2_0_0 - 1000 edge_21_2_0_0 <= 0
 inactive_no_flow_21_3_0_0: flow_21_3_0_0 - 1000 edge_21_3_0_0 <= 0
 inactive_no_flow_21_4_0_0: flow_21_4_0_0 - 1000 edge_21_4_0_0 <= 0
 inactive_no_flow_21_13_0_0: flow_21_13_0_0 - 1000 edge_21_13_0_0 <= 0
 inactive_no_flow_21_15_0_0: flow_21_15_0_0 - 1000 edge_21_15_0_0 <= 0
 inactive_no_flow_21_16_0_0: flow_21_16_0_0 - 1000 edge_21_16_0_0 <= 0
 inactive_no_flow_21_17_0_0: flow_21_17_0_0 - 1000 edge_21_17_0_0 <= 0
 inactive_no_flow_21_18_0_0: flow_21_18_0_0 - 1000 edge_21_18_0_0 <= 0
 inactive_no_flow_21_19_0_0: flow_21_19_0_0 - 1000 edge_21_19_0_0 <= 0
 inactive_no_flow_21_20_0_0: flow_21_20_0_0 - 1000 edge_21_20_0_0 <= 0
 inactive_no_flow_21_22_0_0: flow_21_22_0_0 - 1000 edge_21_22_0_0 <= 0
 inactive_no_flow_22_21_0_0: flow_22_21_0_0 - 1000 edge_22_21_0_0 <= 0
Bounds
Binaries
 edge_0_1_0_0 edge_0_2_0_0 edge_0_3_0_0 edge_0_6_0_0 edge_0_9_0_0
 edge_0_13_0_0 edge_0_15_0_0 edge_0_20_0_0 edge_1_2_0_0 edge_1_3_0_0
 edge_1_6_0_0 edge_1_8_0_0 edge_2_1_0_0 edge_2_3_0_0 edge_2_4_0_0
 edge_2_6_0_0 edge_2_7_0_0 edge_2_8_0_0 edge_2_9_0_0 edge_2_13_0_0
 edge_2_15_0_0 edge_2_16_0_0 edge_2_17_0_0 edge_2_18_0_0 edge_2_19_0_0
 edge_2_20_0_0 edge_2_22_0_0 edge_3_1_0_0 edge_3_2_0_0 edge_3_4_0_0
 edge_3_5_0_0 edge_3_6_0_0 edge_3_7_0_0 edge_3_8_0_0 edge_3_9_0_0
 edge_3_12_0_0 edge_3_13_0_0 edge_3_15_0_0 edge_3_16_0_0 edge_3_17_0_0
 edge_3_18_0_0 edge_3_19_0_0 edge_3_20_0_0 edge_3_21_0_0 edge_3_22_0_0
 edge_4_1_0_0 edge_4_2_0_0 edge_4_3_0_0 edge_4_5_0_0 edge_4_6_0_0
 edge_4_7_0_0 edge_4_8_0_0 edge_4_9_0_0 edge_4_12_0_0 edge_4_13_0_0
 edge_4_15_0_0 edge_4_21_0_0 edge_5_8_0_0 edge_6_1_0_0 edge_6_2_0_0
 edge_6_3_0_0 edge_6_4_0_0 edge_6_5_0_0 edge_6_7_0_0 edge_6_8_0_0
 edge_6_9_0_0 edge_6_12_0_0 edge_6_13_0_0 edge_6_15_0_0 edge_6_16_0_0
 edge_6_17_0_0 edge_6_18_0_0 edge_6_19_0_0 edge_6_20_0_0 edge_6_21_0_0
 edge_6_22_0_0 edge_8_1_0_0 edge_8_2_0_0 edge_8_3_0_0 edge_8_4_0_0
 edge_8_6_0_0 edge_8_9_0_0 edge_8_13_0_0 edge_8_15_0_0 edge_8_17_0_0
 edge_8_19_0_0 edge_8_22_0_0 edge_9_1_0_0 edge_9_2_0_0 edge_9_3_0_0
 edge_9_4_0_0 edge_9_6_0_0 edge_9_7_0_0 edge_9_8_0_0 edge_9_12_0_0
 edge_9_13_0_0 edge_9_15_0_0 edge_9_16_0_0 edge_9_17_0_0 edge_9_18_0_0
 edge_9_19_0_0 edge_9_20_0_0 edge_9_21_0_0 edge_9_22_0_0 edge_12_13_0_0
 edge_12_15_0_0 edge_13_1_0_0 edge_13_2_0_0 edge_13_3_0_0 edge_13_4_0_0
 edge_13_5_0_0 edge_13_6_0_0 edge_13_7_0_0 edge_13_8_0_0 edge_13_9_0_0
 edge_13_12_0_0 edge_13_15_0_0 edge_13_16_0_0 edge_13_17_0_0 edge_13_18_0_0
 edge_13_19_0_0 edge_13_20_0_0 edge_13_21_0_0 edge_13_22_0_0 edge_15_1_0_0
 edge_15_2_0_0 edge_15_3_0_0 edge_15_4_0_0 edge_15_5_0_0 edge_15_6_0_0
 edge_15_7_0_0 edge_15_8_0_0 edge_15_9_0_0 edge_15_12_0_0 edge_15_13_0_0
 edge_15_14_0_0 edge_15_16_0_0 edge_15_17_0_0 edge_15_18_0_0 edge_15_19_0_0
 edge_15_20_0_0 edge_15_21_0_0 edge_15_22_0_0 edge_16_12_0_0 edge_16_13_0_0
 edge_16_15_0_0 edge_16_17_0_0 edge_16_19_0_0 edge_16_20_0_0 edge_17_1_0_0
 edge_17_2_0_0 edge_17_3_0_0 edge_17_6_0_0 edge_17_8_0_0 edge_17_9_0_0
 edge_17_13_0_0 edge_17_15_0_0 edge_17_16_0_0 edge_17_18_0_0 edge_17_19_0_0
 edge_17_20_0_0 edge_17_21_0_0 edge_17_22_0_0 edge_18_2_0_0 edge_18_3_0_0
 edge_18_6_0_0 edge_18_7_0_0 edge_18_8_0_0 edge_18_13_0_0 edge_18_14_0_0
 edge_18_15_0_0 edge_18_16_0_0 edge_18_17_0_0 edge_18_19_0_0 edge_18_20_0_0
 edge_18_21_0_0 edge_18_22_0_0 edge_19_1_0_0 edge_19_2_0_0 edge_19_3_0_0
 edge_19_4_0_0 edge_19_6_0_0 edge_19_8_0_0 edge_19_9_0_0 edge_19_12_0_0
 edge_19_13_0_0 edge_19_15_0_0 edge_19_16_0_0 edge_19_17_0_0 edge_19_18_0_0
 edge_19_20_0_0 edge_19_21_0_0 edge_19_22_0_0 edge_20_1_0_0 edge_20_2_0_0
 edge_20_3_0_0 edge_20_4_0_0 edge_20_6_0_0 edge_20_7_0_0 edge_20_8_0_0
 edge_20_9_0_0 edge_20_12_0_0 edge_20_13_0_0 edge_20_14_0_0 edge_20_15_0_0
 edge_20_16_0_0 edge_20_17_0_0 edge_20_18_0_0 edge_20_19_0_0 edge_20_21_0_0
 edge_20_22_0_0 edge_21_1_0_0 edge_21_2_0_0 edge_21_3_0_0 edge_21_4_0_0
 edge_21_13_0_0 edge_21_15_0_0 edge_21_16_0_0 edge_21_17_0_0 edge_21_18_0_0
 edge_21_19_0_0 edge_21_20_0_0 edge_21_22_0_0 edge_22_21_0_0
End
